NAME : tsp_474_sol.txt
COMMENT : OR-Tools Guided Local Search
TYPE : TOUR
DIMENSION : 50
COST : 6318
STATUS : ROUTING_SUCCESS
GAP : 0.00% (Reference Solution)
TOUR_SECTION
1
10
49
30
14
44
2
31
46
8
26
9
37
18
32
6
21
34
4
5
11
42
16
48
36
24
15
28
13
43
45
12
41
38
7
19
33
23
3
25
40
22
17
20
27
50
35
39
47
29
-1
